; benchmark generated from python API
(set-info :status unknown)
(declare-datatypes ((RealState 0)) (((RMk1 (rval1 Real)) (RMk2 (rval2 Real)))))
 (declare-fun xuscore2dollarskuscore36 () Real)
(declare-fun t24uscore0dollarskuscore3 () Real)
(declare-fun yuscore2dollarskuscore44 () Real)
(declare-fun stuscore2dollarskuscore44 () Real)
(assert
 (let (($x235 (exists ((ts24uscore3_st RealState) (val!85 Real) )(let (($x240 (<= (+ t24uscore0dollarskuscore3 yuscore2dollarskuscore44) (+ 10.0 (+ t24uscore0dollarskuscore3 xuscore2dollarskuscore36)))))
 (let (($x49 (<= yuscore2dollarskuscore44 (+ 10.0 xuscore2dollarskuscore36))))
 (let (($x8 (>= yuscore2dollarskuscore44 (- 5.0 (* 2.0 xuscore2dollarskuscore36)))))
 (let (($x248 (<= yuscore2dollarskuscore44 12.0)))
 (let (($x36 (>= yuscore2dollarskuscore44 1.0)))
 (let (($x138 (= stuscore2dollarskuscore44 0.0)))
 (let (($x159 (< yuscore2dollarskuscore44 10.0)))
 (let (($x22 (>= t24uscore0dollarskuscore3 0.0)))
 (let (($x84 (<= (+ (rval2 ts24uscore3_st) yuscore2dollarskuscore44) 10.0)))
 (let (($x90 (and (<= 0.0 (rval2 ts24uscore3_st)) (<= (rval2 ts24uscore3_st) t24uscore0dollarskuscore3))))
 (let (($x44 (= stuscore2dollarskuscore44 1.0)))
 (let (($x119 (and (and (and (and (and $x44 (=> $x90 $x84)) $x22) $x159) $x138) $x36)))
 (let (($x94 (not (= ts24uscore3_st (RMk1 val!85)))))
 (and $x94 (=> (and (and (and $x119 $x248) $x8) $x49) $x240))))))))))))))))
 ))
 (not $x235)))
(check-sat)
